n = 13;
lu = [|-133, 69
      |52, 149
      |-83, -78
      |54, 79
      |-67, 62
      |-35, 94
      |-129, -94
      |-48, 136
      |-81, 103
      |-119, 45
      |17, 56
      |-114, 51
      |-128, -55|];
